(declare-const X String)
; /filename=[^\n]*\x2epls/i
(assert (str.in_re X (re.++ (str.to_re "/filename=") (re.* (re.comp (str.to_re "\u{a}"))) (str.to_re ".pls/i\u{a}"))))
; www\x2EZSearchResults\x2Ecom\dBar.*sponsor2\.ucmore\.com
(assert (str.in_re X (re.++ (str.to_re "www.ZSearchResults.com\u{13}") (re.range "0" "9") (str.to_re "Bar") (re.* re.allchar) (str.to_re "sponsor2.ucmore.com\u{a}"))))
; www\x2Ewebcruiser\x2Eccgot
(assert (str.in_re X (str.to_re "www.webcruiser.ccgot\u{a}")))
(check-sat)
